NAME : 	TH-n11-k2	
COMMENT : 	"Created by Thomas Hoevener"	
TYPE : 	CVRP	
DIMENSION : 	11
EDGE_WEIGHT_TYPE : 	EUC_2D	
CAPACITY : 	50	
NODE_COORD_SECTION		
1	0 250
2	200	350
3	200	300
4	200	250
5	200	200
6	200	150
7	300	350
8	300	300
9	300	250
10	300	200
11	300	150

DEMAND_SECTION		
1	0	
2	5	
3	5	
4	5	
5	5	
6	5	
7	5	
8	5	
9	5	
10	5	
11	5	
DEPOT_SECTION		
	1	
	-1	
EOF		
